============================[ Problem Statistics ]=============================
|                                                                             |
|  Number of variables:         10637                                         |
|  Number of clauses:           26833                                         |
|  Parse time:                   0.02 s                                       |
|  Eliminated clauses:           0.30 Mb                                      |
|  Simplification time:          0.05 s                                       |
|                                                                             |
============================[ Search Statistics ]==============================
| Conflicts |          ORIGINAL         |          LEARNT          | Progress |
|           |    Vars  Clauses Literals |    Limit  Clauses Lit/Cl |          |
===============================================================================
|       100 |    1662     7591    24861 |     2783       99     20 | 16.800 % |
|       250 |    1661     7591    24861 |     3061      248     13 | 16.809 % |
|       475 |    1659     7591    24861 |     3367      471     12 | 16.828 % |
|       812 |    1657     7579    24835 |     3704      805     11 | 16.847 % |
|      1318 |    1651     7567    24801 |     4075     1298     12 | 16.903 % |
|      2077 |    1651     7567    24801 |     4482     2057     13 | 16.903 % |
|      3216 |    1651     7567    24801 |     4930     3196     13 | 16.903 % |
|      4924 |    1651     7567    24801 |     5423     4904     14 | 16.903 % |
|      7486 |    1651     7567    24801 |     5966     7466     15 | 16.903 % |
|     11330 |    1651     7567    24801 |     6563     7313     16 | 16.903 % |
|     17096 |    1651     7567    24801 |     7219     8873     18 | 16.903 % |
|     25745 |    1650     7565    24795 |     7941     7963     16 | 16.913 % |
|     38719 |    1649     7561    24779 |     8735     9938     14 | 16.922 % |
===============================================================================
restarts              : 127
conflicts             : 42767          (49398 /sec)
decisions             : 119565         (0.00 % random) (138104 /sec)
propagations          : 2703288        (3122445 /sec)
conflict literals     : 723852         (23.78 % deleted)
Memory used           : 6.17 MB
CPU time              : 0.86576 s

UNSATISFIABLE
============================[ Problem Statistics ]=============================
|                                                                             |
|  Number of variables:         10637                                         |
|  Number of clauses:           26833                                         |
|  Parse time:                   0.02 s                                       |
|  Eliminated clauses:           0.30 Mb                                      |
|  Simplification time:          0.06 s                                       |
|                                                                             |
============================[ Search Statistics ]==============================
| Conflicts |          ORIGINAL         |          LEARNT          | Progress |
|           |    Vars  Clauses Literals |    Limit  Clauses Lit/Cl |          |
===============================================================================
|       100 |    1662     7591    24861 |     2783       99     20 | 16.800 % |
|       250 |    1661     7591    24861 |     3061      248     13 | 16.809 % |
|       475 |    1659     7591    24861 |     3367      471     12 | 16.828 % |
|       812 |    1657     7579    24835 |     3704      805     11 | 16.847 % |
|      1318 |    1651     7567    24801 |     4075     1298     12 | 16.903 % |
|      2077 |    1651     7567    24801 |     4482     2057     13 | 16.903 % |
|      3216 |    1651     7567    24801 |     4930     3196     13 | 16.903 % |
|      4924 |    1651     7567    24801 |     5423     4904     14 | 16.903 % |
|      7486 |    1651     7567    24801 |     5966     7466     15 | 16.903 % |
|     11330 |    1651     7567    24801 |     6563     7313     16 | 16.903 % |
|     17096 |    1651     7567    24801 |     7219     8873     18 | 16.903 % |
|     25745 |    1650     7565    24795 |     7941     7963     16 | 16.913 % |
|     38719 |    1649     7561    24779 |     8735     9938     14 | 16.922 % |
===============================================================================
restarts              : 127
conflicts             : 42767          (49465 /sec)
decisions             : 119565         (0.00 % random) (138292 /sec)
propagations          : 2703288        (3126685 /sec)
conflict literals     : 723852         (23.78 % deleted)
Memory used           : 5.80 MB
CPU time              : 0.864586 s

UNSATISFIABLE
